250
209
317
161
215
256
178
371
232
284
188
218
196
212
124
316
240
310
261
210
205
156
262
196
248
198
139
184
292
181
251
192
263
243
325
251
217
271
186
217
209
293
197
256
253
226
204
193
190
240
286
273
215
341
258
214
204
264
177
225
281
155
216
224
291
263
276
268
287
254
176
248
228
244
266
267
159
227
112
191
211
318
234
261
202
264
238
172
270
229
163
171
199
281
232
280
216
220
181
203
